50, 11448
568, 572
375, 429
602, 579
113, 207
776, 814
97, 824
167, 654
808, 161
948, 521
434, 328
415, 250
246, 953
275, 997
618, 45
179, 861
120, 604
456, 382
165, 284
649, 675
822, 457
778, 686
481, 662
348, 133
435, 768
6, 983
713, 970
332, 614
320, 45
80, 5
449, 134
583, 942
391, 303
870, 367
674, 899
242, 315
526, 549
911, 437
521, 65
603, 585
63, 845
490, 157
462, 225
402, 413
421, 37
585, 497
539, 818
490, 658
166, 534
442, 856
969, 150
